c Reduced graph for zeroin.i.2_2 generated by Cyril Grelier
p edge 106 2289
e 1 2
e 1 3
e 1 4
e 1 5
e 1 7
e 1 8
e 1 10
e 1 11
e 1 12
e 1 13
e 1 14
e 1 15
e 1 16
e 1 17
e 1 18
e 1 19
e 1 20
e 1 22
e 1 23
e 1 24
e 1 25
e 1 26
e 1 27
e 1 28
e 1 29
e 1 31
e 1 32
e 1 35
e 1 36
e 1 37
e 1 38
e 1 39
e 1 40
e 1 41
e 1 42
e 1 46
e 1 47
e 1 48
e 1 49
e 1 51
e 1 52
e 1 53
e 1 54
e 1 55
e 1 56
e 1 57
e 1 58
e 1 59
e 1 60
e 1 61
e 1 62
e 1 63
e 1 64
e 1 66
e 1 68
e 1 69
e 1 70
e 1 71
e 1 72
e 1 73
e 1 74
e 1 75
e 1 76
e 1 77
e 1 79
e 1 80
e 1 81
e 1 83
e 1 84
e 1 85
e 1 87
e 1 88
e 1 89
e 1 90
e 1 91
e 1 92
e 1 93
e 1 94
e 1 95
e 1 96
e 1 97
e 1 98
e 1 99
e 1 100
e 1 101
e 1 102
e 1 103
e 1 104
e 1 105
e 2 3
e 2 6
e 2 7
e 2 8
e 2 15
e 2 16
e 2 19
e 2 20
e 2 26
e 2 32
e 2 41
e 2 42
e 2 46
e 2 48
e 2 49
e 2 53
e 2 54
e 2 56
e 2 58
e 2 59
e 2 60
e 2 61
e 2 62
e 2 65
e 2 66
e 2 72
e 2 73
e 2 81
e 2 85
e 2 90
e 2 94
e 2 95
e 2 100
e 2 101
e 2 105
e 3 6
e 3 7
e 3 8
e 3 15
e 3 19
e 3 20
e 3 32
e 3 41
e 3 42
e 3 48
e 3 49
e 3 53
e 3 54
e 3 58
e 3 59
e 3 60
e 3 61
e 3 62
e 3 65
e 3 66
e 3 81
e 3 85
e 3 90
e 3 94
e 3 95
e 3 100
e 3 101
e 3 105
e 4 6
e 4 8
e 4 9
e 4 21
e 4 30
e 4 32
e 4 33
e 4 34
e 4 41
e 4 43
e 4 44
e 4 45
e 4 48
e 4 50
e 4 53
e 4 54
e 4 58
e 4 59
e 4 65
e 4 66
e 4 67
e 4 78
e 4 81
e 4 82
e 4 86
e 4 105
e 4 106
e 5 6
e 5 7
e 5 8
e 5 15
e 5 16
e 5 17
e 5 19
e 5 20
e 5 28
e 5 32
e 5 41
e 5 42
e 5 48
e 5 49
e 5 53
e 5 54
e 5 58
e 5 59
e 5 60
e 5 61
e 5 62
e 5 65
e 5 66
e 5 81
e 5 94
e 5 105
e 6 9
e 6 10
e 6 11
e 6 12
e 6 13
e 6 14
e 6 15
e 6 16
e 6 17
e 6 18
e 6 20
e 6 21
e 6 22
e 6 23
e 6 24
e 6 25
e 6 26
e 6 27
e 6 28
e 6 29
e 6 30
e 6 31
e 6 33
e 6 34
e 6 35
e 6 36
e 6 37
e 6 38
e 6 39
e 6 40
e 6 42
e 6 43
e 6 44
e 6 45
e 6 46
e 6 47
e 6 50
e 6 51
e 6 52
e 6 55
e 6 56
e 6 57
e 6 60
e 6 62
e 6 63
e 6 64
e 6 65
e 6 67
e 6 68
e 6 69
e 6 70
e 6 71
e 6 72
e 6 73
e 6 74
e 6 75
e 6 76
e 6 77
e 6 78
e 6 79
e 6 80
e 6 82
e 6 83
e 6 84
e 6 85
e 6 86
e 6 87
e 6 88
e 6 89
e 6 90
e 6 91
e 6 92
e 6 93
e 6 94
e 6 95
e 6 96
e 6 97
e 6 98
e 6 99
e 6 100
e 6 101
e 6 102
e 6 103
e 6 104
e 6 106
e 7 8
e 7 10
e 7 11
e 7 12
e 7 13
e 7 14
e 7 15
e 7 16
e 7 17
e 7 18
e 7 19
e 7 20
e 7 22
e 7 23
e 7 24
e 7 25
e 7 26
e 7 27
e 7 28
e 7 29
e 7 31
e 7 32
e 7 35
e 7 36
e 7 37
e 7 38
e 7 39
e 7 40
e 7 41
e 7 42
e 7 46
e 7 47
e 7 48
e 7 49
e 7 51
e 7 52
e 7 53
e 7 54
e 7 55
e 7 56
e 7 57
e 7 58
e 7 59
e 7 60
e 7 61
e 7 62
e 7 63
e 7 64
e 7 66
e 7 68
e 7 70
e 7 72
e 7 73
e 7 74
e 7 75
e 7 76
e 7 80
e 7 81
e 7 83
e 7 84
e 7 85
e 7 87
e 7 90
e 7 91
e 7 92
e 7 93
e 7 94
e 7 95
e 7 96
e 7 97
e 7 98
e 7 99
e 7 100
e 7 101
e 7 102
e 7 103
e 7 104
e 7 105
e 8 10
e 8 11
e 8 12
e 8 13
e 8 14
e 8 15
e 8 16
e 8 17
e 8 18
e 8 19
e 8 20
e 8 22
e 8 23
e 8 24
e 8 25
e 8 26
e 8 27
e 8 28
e 8 29
e 8 31
e 8 32
e 8 35
e 8 36
e 8 37
e 8 39
e 8 40
e 8 41
e 8 42
e 8 46
e 8 47
e 8 48
e 8 49
e 8 51
e 8 52
e 8 53
e 8 54
e 8 56
e 8 57
e 8 58
e 8 59
e 8 60
e 8 61
e 8 62
e 8 63
e 8 64
e 8 66
e 8 68
e 8 69
e 8 70
e 8 71
e 8 72
e 8 73
e 8 74
e 8 75
e 8 76
e 8 77
e 8 80
e 8 81
e 8 85
e 8 87
e 8 88
e 8 90
e 8 92
e 8 93
e 8 94
e 8 95
e 8 96
e 8 98
e 8 99
e 8 100
e 8 101
e 8 102
e 8 104
e 8 105
e 9 21
e 9 30
e 9 31
e 9 33
e 9 34
e 9 35
e 9 38
e 9 43
e 9 44
e 9 45
e 9 50
e 9 55
e 9 65
e 9 67
e 9 69
e 9 71
e 9 76
e 9 77
e 9 78
e 9 79
e 9 82
e 9 83
e 9 84
e 9 86
e 9 88
e 9 89
e 9 91
e 9 97
e 9 103
e 9 106
e 10 15
e 10 19
e 10 20
e 10 27
e 10 32
e 10 36
e 10 41
e 10 42
e 10 48
e 10 49
e 10 53
e 10 54
e 10 58
e 10 59
e 10 60
e 10 61
e 10 62
e 10 65
e 10 66
e 10 81
e 10 94
e 10 95
e 10 100
e 10 102
e 10 105
e 11 14
e 11 15
e 11 19
e 11 20
e 11 25
e 11 32
e 11 41
e 11 42
e 11 48
e 11 49
e 11 53
e 11 54
e 11 58
e 11 59
e 11 60
e 11 61
e 11 62
e 11 65
e 11 66
e 11 81
e 11 94
e 11 95
e 11 100
e 11 105
e 12 18
e 12 19
e 12 29
e 12 32
e 12 33
e 12 35
e 12 41
e 12 48
e 12 49
e 12 53
e 12 54
e 12 58
e 12 59
e 12 60
e 12 61
e 12 65
e 12 66
e 12 68
e 12 76
e 12 81
e 12 87
e 12 96
e 12 98
e 12 105
e 13 15
e 13 16
e 13 17
e 13 19
e 13 20
e 13 32
e 13 41
e 13 42
e 13 48
e 13 49
e 13 53
e 13 54
e 13 58
e 13 59
e 13 60
e 13 61
e 13 62
e 13 65
e 13 66
e 13 81
e 13 94
e 13 95
e 13 100
e 13 105
e 14 15
e 14 19
e 14 20
e 14 25
e 14 32
e 14 41
e 14 42
e 14 48
e 14 49
e 14 53
e 14 54
e 14 58
e 14 59
e 14 60
e 14 61
e 14 62
e 14 65
e 14 66
e 14 81
e 14 94
e 14 95
e 14 100
e 14 105
e 15 16
e 15 17
e 15 19
e 15 20
e 15 22
e 15 23
e 15 24
e 15 25
e 15 26
e 15 27
e 15 28
e 15 32
e 15 36
e 15 37
e 15 39
e 15 40
e 15 41
e 15 42
e 15 43
e 15 44
e 15 45
e 15 46
e 15 48
e 15 49
e 15 51
e 15 53
e 15 54
e 15 56
e 15 57
e 15 58
e 15 59
e 15 60
e 15 61
e 15 62
e 15 63
e 15 64
e 15 65
e 15 66
e 15 70
e 15 72
e 15 73
e 15 74
e 15 75
e 15 80
e 15 81
e 15 82
e 15 85
e 15 90
e 15 92
e 15 93
e 15 94
e 15 95
e 15 99
e 15 100
e 15 101
e 15 102
e 15 104
e 15 105
e 15 106
e 16 17
e 16 19
e 16 20
e 16 23
e 16 24
e 16 28
e 16 32
e 16 37
e 16 41
e 16 42
e 16 43
e 16 44
e 16 45
e 16 47
e 16 48
e 16 49
e 16 51
e 16 52
e 16 53
e 16 54
e 16 57
e 16 58
e 16 59
e 16 60
e 16 61
e 16 62
e 16 64
e 16 65
e 16 66
e 16 74
e 16 75
e 16 80
e 16 81
e 16 82
e 16 85
e 16 90
e 16 94
e 16 95
e 16 99
e 16 100
e 16 104
e 16 105
e 16 106
e 17 19
e 17 20
e 17 23
e 17 24
e 17 28
e 17 32
e 17 37
e 17 41
e 17 42
e 17 43
e 17 44
e 17 45
e 17 47
e 17 48
e 17 49
e 17 51
e 17 52
e 17 53
e 17 54
e 17 57
e 17 58
e 17 59
e 17 60
e 17 61
e 17 62
e 17 64
e 17 65
e 17 66
e 17 74
e 17 75
e 17 80
e 17 81
e 17 82
e 17 94
e 17 95
e 17 99
e 17 100
e 17 104
e 17 105
e 17 106
e 18 19
e 18 29
e 18 32
e 18 33
e 18 34
e 18 35
e 18 41
e 18 48
e 18 49
e 18 53
e 18 54
e 18 58
e 18 59
e 18 60
e 18 61
e 18 65
e 18 66
e 18 68
e 18 76
e 18 81
e 18 87
e 18 96
e 18 98
e 18 105
e 19 20
e 19 22
e 19 23
e 19 24
e 19 25
e 19 26
e 19 27
e 19 28
e 19 29
e 19 31
e 19 32
e 19 35
e 19 36
e 19 37
e 19 39
e 19 40
e 19 41
e 19 42
e 19 46
e 19 47
e 19 48
e 19 49
e 19 51
e 19 52
e 19 53
e 19 54
e 19 56
e 19 57
e 19 58
e 19 59
e 19 60
e 19 61
e 19 62
e 19 63
e 19 64
e 19 66
e 19 68
e 19 70
e 19 72
e 19 73
e 19 74
e 19 75
e 19 76
e 19 80
e 19 81
e 19 85
e 19 87
e 19 90
e 19 92
e 19 93
e 19 94
e 19 95
e 19 96
e 19 98
e 19 99
e 19 100
e 19 101
e 19 102
e 19 104
e 19 105
e 20 22
e 20 23
e 20 24
e 20 25
e 20 26
e 20 27
e 20 28
e 20 32
e 20 36
e 20 37
e 20 39
e 20 40
e 20 41
e 20 42
e 20 46
e 20 47
e 20 48
e 20 49
e 20 51
e 20 52
e 20 53
e 20 54
e 20 56
e 20 57
e 20 58
e 20 59
e 20 60
e 20 61
e 20 62
e 20 63
e 20 64
e 20 65
e 20 66
e 20 70
e 20 72
e 20 73
e 20 74
e 20 75
e 20 80
e 20 81
e 20 85
e 20 90
e 20 92
e 20 93
e 20 94
e 20 95
e 20 99
e 20 100
e 20 101
e 20 102
e 20 104
e 20 105
e 21 30
e 21 31
e 21 33
e 21 34
e 21 35
e 21 38
e 21 43
e 21 44
e 21 45
e 21 50
e 21 55
e 21 65
e 21 67
e 21 68
e 21 69
e 21 71
e 21 76
e 21 77
e 21 78
e 21 79
e 21 82
e 21 83
e 21 84
e 21 86
e 21 87
e 21 88
e 21 89
e 21 91
e 21 96
e 21 97
e 21 103
e 21 106
e 22 25
e 22 32
e 22 40
e 22 41
e 22 42
e 22 48
e 22 49
e 22 53
e 22 54
e 22 58
e 22 59
e 22 60
e 22 61
e 22 62
e 22 65
e 22 66
e 22 81
e 22 93
e 22 94
e 22 95
e 22 100
e 22 101
e 22 105
e 23 32
e 23 37
e 23 41
e 23 42
e 23 48
e 23 49
e 23 53
e 23 54
e 23 57
e 23 58
e 23 59
e 23 60
e 23 61
e 23 62
e 23 65
e 23 66
e 23 74
e 23 81
e 23 94
e 23 105
e 24 32
e 24 41
e 24 42
e 24 48
e 24 49
e 24 53
e 24 54
e 24 58
e 24 59
e 24 60
e 24 61
e 24 62
e 24 64
e 24 65
e 24 66
e 24 81
e 24 94
e 24 105
e 25 26
e 25 32
e 25 39
e 25 40
e 25 41
e 25 42
e 25 48
e 25 49
e 25 53
e 25 54
e 25 58
e 25 59
e 25 60
e 25 61
e 25 62
e 25 65
e 25 66
e 25 70
e 25 81
e 25 90
e 25 93
e 25 94
e 25 95
e 25 100
e 25 101
e 25 102
e 25 105
e 26 32
e 26 39
e 26 41
e 26 42
e 26 46
e 26 48
e 26 49
e 26 53
e 26 54
e 26 58
e 26 59
e 26 60
e 26 61
e 26 62
e 26 65
e 26 66
e 26 70
e 26 81
e 26 90
e 26 94
e 26 95
e 26 100
e 26 101
e 26 105
e 27 32
e 27 36
e 27 41
e 27 42
e 27 48
e 27 49
e 27 53
e 27 54
e 27 58
e 27 59
e 27 60
e 27 61
e 27 62
e 27 63
e 27 65
e 27 66
e 27 81
e 27 92
e 27 94
e 27 95
e 27 100
e 27 102
e 27 105
e 28 32
e 28 41
e 28 42
e 28 48
e 28 49
e 28 53
e 28 54
e 28 58
e 28 59
e 28 60
e 28 61
e 28 62
e 28 65
e 28 66
e 28 81
e 28 94
e 28 105
e 29 32
e 29 35
e 29 41
e 29 48
e 29 49
e 29 53
e 29 54
e 29 58
e 29 59
e 29 60
e 29 61
e 29 65
e 29 66
e 29 68
e 29 76
e 29 81
e 29 87
e 29 96
e 29 98
e 29 105
e 30 31
e 30 33
e 30 34
e 30 35
e 30 38
e 30 43
e 30 44
e 30 45
e 30 50
e 30 55
e 30 65
e 30 67
e 30 69
e 30 71
e 30 76
e 30 77
e 30 78
e 30 79
e 30 82
e 30 83
e 30 84
e 30 86
e 30 87
e 30 88
e 30 89
e 30 91
e 30 97
e 30 103
e 30 106
e 31 32
e 31 33
e 31 34
e 31 41
e 31 48
e 31 49
e 31 50
e 31 53
e 31 54
e 31 58
e 31 59
e 31 61
e 31 66
e 31 67
e 31 81
e 31 86
e 31 105
e 32 35
e 32 36
e 32 37
e 32 38
e 32 39
e 32 40
e 32 41
e 32 42
e 32 46
e 32 47
e 32 48
e 32 49
e 32 51
e 32 52
e 32 53
e 32 54
e 32 55
e 32 56
e 32 57
e 32 58
e 32 59
e 32 60
e 32 61
e 32 62
e 32 63
e 32 64
e 32 66
e 32 68
e 32 69
e 32 70
e 32 72
e 32 73
e 32 74
e 32 75
e 32 76
e 32 80
e 32 81
e 32 83
e 32 84
e 32 85
e 32 87
e 32 90
e 32 91
e 32 92
e 32 93
e 32 94
e 32 95
e 32 96
e 32 97
e 32 98
e 32 99
e 32 100
e 32 101
e 32 102
e 32 103
e 32 104
e 32 105
e 33 34
e 33 35
e 33 38
e 33 43
e 33 44
e 33 45
e 33 50
e 33 55
e 33 65
e 33 67
e 33 68
e 33 69
e 33 71
e 33 76
e 33 77
e 33 78
e 33 79
e 33 82
e 33 83
e 33 84
e 33 86
e 33 87
e 33 88
e 33 89
e 33 91
e 33 96
e 33 97
e 33 98
e 33 103
e 33 106
e 34 35
e 34 38
e 34 43
e 34 44
e 34 45
e 34 50
e 34 55
e 34 65
e 34 67
e 34 68
e 34 69
e 34 71
e 34 76
e 34 77
e 34 78
e 34 79
e 34 82
e 34 83
e 34 84
e 34 86
e 34 87
e 34 88
e 34 89
e 34 91
e 34 96
e 34 97
e 34 98
e 34 103
e 34 106
e 35 41
e 35 48
e 35 49
e 35 53
e 35 54
e 35 58
e 35 59
e 35 60
e 35 61
e 35 65
e 35 66
e 35 67
e 35 68
e 35 76
e 35 81
e 35 86
e 35 87
e 35 96
e 35 98
e 35 105
e 36 41
e 36 42
e 36 48
e 36 49
e 36 53
e 36 54
e 36 58
e 36 59
e 36 60
e 36 61
e 36 62
e 36 63
e 36 65
e 36 66
e 36 81
e 36 92
e 36 94
e 36 95
e 36 100
e 36 102
e 36 105
e 37 41
e 37 42
e 37 48
e 37 49
e 37 53
e 37 54
e 37 57
e 37 58
e 37 59
e 37 60
e 37 61
e 37 62
e 37 65
e 37 66
e 37 74
e 37 81
e 37 94
e 37 100
e 37 104
e 37 105
e 38 41
e 38 43
e 38 44
e 38 45
e 38 48
e 38 50
e 38 53
e 38 55
e 38 58
e 38 65
e 38 66
e 38 67
e 38 78
e 38 82
e 38 83
e 38 84
e 38 86
e 38 91
e 38 97
e 38 103
e 38 105
e 38 106
e 39 41
e 39 42
e 39 48
e 39 49
e 39 53
e 39 54
e 39 58
e 39 59
e 39 60
e 39 61
e 39 62
e 39 65
e 39 66
e 39 81
e 39 94
e 39 95
e 39 100
e 39 101
e 39 105
e 40 41
e 40 42
e 40 48
e 40 49
e 40 53
e 40 54
e 40 58
e 40 59
e 40 60
e 40 61
e 40 62
e 40 65
e 40 66
e 40 81
e 40 94
e 40 95
e 40 100
e 40 105
e 41 42
e 41 46
e 41 47
e 41 48
e 41 49
e 41 51
e 41 52
e 41 53
e 41 54
e 41 55
e 41 56
e 41 57
e 41 58
e 41 59
e 41 60
e 41 61
e 41 62
e 41 63
e 41 64
e 41 66
e 41 68
e 41 69
e 41 70
e 41 72
e 41 73
e 41 74
e 41 75
e 41 76
e 41 80
e 41 81
e 41 83
e 41 84
e 41 85
e 41 87
e 41 90
e 41 91
e 41 92
e 41 93
e 41 94
e 41 95
e 41 96
e 41 97
e 41 98
e 41 99
e 41 100
e 41 101
e 41 102
e 41 103
e 41 104
e 41 105
e 42 43
e 42 44
e 42 45
e 42 46
e 42 48
e 42 49
e 42 51
e 42 53
e 42 54
e 42 56
e 42 57
e 42 58
e 42 59
e 42 60
e 42 61
e 42 62
e 42 63
e 42 64
e 42 65
e 42 66
e 42 70
e 42 72
e 42 73
e 42 74
e 42 75
e 42 80
e 42 81
e 42 82
e 42 85
e 42 90
e 42 92
e 42 93
e 42 94
e 42 95
e 42 99
e 42 100
e 42 101
e 42 102
e 42 104
e 42 105
e 42 106
e 43 44
e 43 45
e 43 47
e 43 50
e 43 55
e 43 60
e 43 62
e 43 65
e 43 67
e 43 69
e 43 71
e 43 77
e 43 78
e 43 79
e 43 82
e 43 83
e 43 84
e 43 86
e 43 88
e 43 89
e 43 91
e 43 94
e 43 97
e 43 103
e 43 106
e 44 45
e 44 47
e 44 50
e 44 55
e 44 60
e 44 62
e 44 65
e 44 67
e 44 69
e 44 71
e 44 77
e 44 78
e 44 79
e 44 82
e 44 83
e 44 84
e 44 86
e 44 88
e 44 89
e 44 91
e 44 94
e 44 97
e 44 103
e 44 106
e 45 47
e 45 50
e 45 55
e 45 60
e 45 62
e 45 65
e 45 67
e 45 69
e 45 71
e 45 77
e 45 78
e 45 79
e 45 82
e 45 83
e 45 84
e 45 86
e 45 88
e 45 89
e 45 91
e 45 94
e 45 97
e 45 103
e 45 106
e 46 48
e 46 49
e 46 53
e 46 54
e 46 56
e 46 58
e 46 59
e 46 60
e 46 61
e 46 62
e 46 65
e 46 66
e 46 81
e 46 85
e 46 90
e 46 94
e 46 95
e 46 100
e 46 101
e 46 105
e 47 48
e 47 49
e 47 52
e 47 53
e 47 54
e 47 58
e 47 59
e 47 60
e 47 61
e 47 65
e 47 66
e 47 81
e 47 82
e 47 105
e 47 106
e 48 49
e 48 51
e 48 52
e 48 53
e 48 54
e 48 55
e 48 56
e 48 57
e 48 58
e 48 59
e 48 60
e 48 61
e 48 62
e 48 63
e 48 64
e 48 66
e 48 68
e 48 69
e 48 70
e 48 71
e 48 72
e 48 73
e 48 74
e 48 75
e 48 76
e 48 77
e 48 79
e 48 80
e 48 81
e 48 83
e 48 84
e 48 85
e 48 87
e 48 88
e 48 89
e 48 90
e 48 91
e 48 92
e 48 93
e 48 94
e 48 95
e 48 96
e 48 97
e 48 98
e 48 99
e 48 100
e 48 101
e 48 102
e 48 103
e 48 104
e 48 105
e 49 51
e 49 52
e 49 53
e 49 54
e 49 56
e 49 57
e 49 58
e 49 59
e 49 60
e 49 61
e 49 62
e 49 63
e 49 64
e 49 66
e 49 68
e 49 69
e 49 70
e 49 72
e 49 73
e 49 74
e 49 75
e 49 76
e 49 80
e 49 81
e 49 85
e 49 87
e 49 88
e 49 90
e 49 92
e 49 93
e 49 94
e 49 95
e 49 96
e 49 98
e 49 99
e 49 100
e 49 101
e 49 102
e 49 104
e 49 105
e 50 55
e 50 65
e 50 67
e 50 69
e 50 71
e 50 76
e 50 77
e 50 78
e 50 79
e 50 82
e 50 83
e 50 84
e 50 86
e 50 88
e 50 89
e 50 91
e 50 97
e 50 103
e 50 106
e 51 53
e 51 54
e 51 58
e 51 59
e 51 60
e 51 61
e 51 62
e 51 65
e 51 66
e 51 81
e 51 94
e 51 95
e 51 99
e 51 100
e 51 105
e 52 53
e 52 54
e 52 58
e 52 59
e 52 60
e 52 61
e 52 65
e 52 66
e 52 81
e 52 105
e 53 54
e 53 55
e 53 56
e 53 57
e 53 58
e 53 59
e 53 60
e 53 61
e 53 62
e 53 63
e 53 64
e 53 66
e 53 68
e 53 69
e 53 70
e 53 72
e 53 73
e 53 74
e 53 75
e 53 76
e 53 80
e 53 81
e 53 83
e 53 84
e 53 85
e 53 87
e 53 90
e 53 91
e 53 92
e 53 93
e 53 94
e 53 95
e 53 96
e 53 97
e 53 98
e 53 99
e 53 100
e 53 101
e 53 102
e 53 103
e 53 104
e 53 105
e 54 56
e 54 57
e 54 58
e 54 59
e 54 60
e 54 61
e 54 62
e 54 63
e 54 64
e 54 66
e 54 68
e 54 69
e 54 70
e 54 71
e 54 72
e 54 73
e 54 74
e 54 75
e 54 76
e 54 77
e 54 79
e 54 80
e 54 81
e 54 83
e 54 85
e 54 87
e 54 88
e 54 89
e 54 90
e 54 92
e 54 93
e 54 94
e 54 95
e 54 96
e 54 98
e 54 99
e 54 100
e 54 101
e 54 102
e 54 104
e 54 105
e 55 58
e 55 65
e 55 66
e 55 67
e 55 78
e 55 82
e 55 83
e 55 84
e 55 86
e 55 91
e 55 97
e 55 103
e 55 105
e 55 106
e 56 58
e 56 59
e 56 60
e 56 61
e 56 62
e 56 65
e 56 66
e 56 81
e 56 85
e 56 90
e 56 94
e 56 95
e 56 100
e 56 101
e 56 105
e 57 58
e 57 59
e 57 60
e 57 61
e 57 62
e 57 65
e 57 66
e 57 74
e 57 81
e 57 94
e 57 105
e 58 59
e 58 60
e 58 61
e 58 62
e 58 63
e 58 64
e 58 66
e 58 68
e 58 69
e 58 70
e 58 72
e 58 73
e 58 74
e 58 75
e 58 76
e 58 80
e 58 81
e 58 83
e 58 84
e 58 85
e 58 87
e 58 90
e 58 91
e 58 92
e 58 93
e 58 94
e 58 95
e 58 96
e 58 97
e 58 98
e 58 99
e 58 100
e 58 101
e 58 102
e 58 103
e 58 104
e 58 105
e 59 60
e 59 61
e 59 62
e 59 63
e 59 64
e 59 66
e 59 68
e 59 69
e 59 70
e 59 71
e 59 72
e 59 73
e 59 74
e 59 75
e 59 76
e 59 77
e 59 79
e 59 80
e 59 81
e 59 85
e 59 87
e 59 88
e 59 89
e 59 90
e 59 92
e 59 93
e 59 94
e 59 95
e 59 96
e 59 98
e 59 99
e 59 100
e 59 101
e 59 102
e 59 104
e 59 105
e 60 61
e 60 62
e 60 63
e 60 64
e 60 65
e 60 66
e 60 68
e 60 70
e 60 72
e 60 73
e 60 74
e 60 75
e 60 76
e 60 80
e 60 81
e 60 82
e 60 85
e 60 87
e 60 90
e 60 92
e 60 93
e 60 94
e 60 95
e 60 96
e 60 98
e 60 99
e 60 100
e 60 101
e 60 102
e 60 104
e 60 105
e 60 106
e 61 62
e 61 63
e 61 64
e 61 66
e 61 68
e 61 69
e 61 70
e 61 71
e 61 72
e 61 73
e 61 74
e 61 75
e 61 76
e 61 80
e 61 81
e 61 85
e 61 87
e 61 88
e 61 90
e 61 92
e 61 93
e 61 94
e 61 95
e 61 96
e 61 98
e 61 99
e 61 100
e 61 101
e 61 102
e 61 104
e 61 105
e 62 63
e 62 64
e 62 65
e 62 66
e 62 70
e 62 72
e 62 73
e 62 74
e 62 75
e 62 80
e 62 81
e 62 82
e 62 85
e 62 90
e 62 92
e 62 93
e 62 94
e 62 95
e 62 99
e 62 100
e 62 101
e 62 102
e 62 104
e 62 105
e 62 106
e 63 65
e 63 66
e 63 81
e 63 92
e 63 94
e 63 95
e 63 100
e 63 102
e 63 105
e 64 65
e 64 66
e 64 81
e 64 94
e 64 105
e 65 67
e 65 68
e 65 69
e 65 70
e 65 71
e 65 72
e 65 73
e 65 74
e 65 75
e 65 76
e 65 77
e 65 78
e 65 79
e 65 80
e 65 82
e 65 83
e 65 84
e 65 85
e 65 86
e 65 87
e 65 88
e 65 89
e 65 90
e 65 91
e 65 92
e 65 93
e 65 94
e 65 95
e 65 96
e 65 97
e 65 98
e 65 99
e 65 100
e 65 101
e 65 102
e 65 103
e 65 104
e 65 106
e 66 68
e 66 69
e 66 70
e 66 72
e 66 73
e 66 74
e 66 75
e 66 76
e 66 80
e 66 81
e 66 83
e 66 84
e 66 85
e 66 87
e 66 90
e 66 91
e 66 92
e 66 93
e 66 94
e 66 95
e 66 96
e 66 97
e 66 98
e 66 99
e 66 100
e 66 101
e 66 102
e 66 103
e 66 104
e 66 105
e 67 68
e 67 69
e 67 71
e 67 76
e 67 77
e 67 78
e 67 79
e 67 82
e 67 83
e 67 84
e 67 86
e 67 87
e 67 88
e 67 89
e 67 91
e 67 96
e 67 97
e 67 98
e 67 103
e 67 106
e 68 76
e 68 81
e 68 87
e 68 96
e 68 98
e 68 105
e 69 78
e 69 81
e 69 82
e 69 86
e 69 105
e 69 106
e 70 81
e 70 90
e 70 94
e 70 95
e 70 100
e 70 101
e 70 105
e 71 77
e 71 78
e 71 79
e 71 81
e 71 82
e 71 83
e 71 84
e 71 86
e 71 88
e 71 89
e 71 91
e 71 105
e 71 106
e 72 73
e 72 81
e 72 85
e 72 90
e 72 94
e 72 95
e 72 100
e 72 101
e 72 105
e 73 81
e 73 85
e 73 90
e 73 94
e 73 95
e 73 100
e 73 101
e 73 105
e 74 81
e 74 94
e 74 105
e 75 80
e 75 81
e 75 94
e 75 105
e 76 81
e 76 86
e 76 87
e 76 96
e 76 98
e 76 105
e 77 78
e 77 79
e 77 81
e 77 82
e 77 83
e 77 84
e 77 86
e 77 88
e 77 89
e 77 91
e 77 105
e 77 106
e 78 79
e 78 82
e 78 83
e 78 84
e 78 86
e 78 88
e 78 89
e 78 91
e 78 97
e 78 103
e 78 106
e 79 82
e 79 83
e 79 84
e 79 86
e 79 88
e 79 89
e 79 91
e 79 105
e 79 106
e 80 81
e 80 94
e 80 105
e 81 85
e 81 87
e 81 88
e 81 89
e 81 90
e 81 92
e 81 93
e 81 94
e 81 95
e 81 96
e 81 98
e 81 99
e 81 100
e 81 101
e 81 102
e 81 104
e 81 105
e 82 83
e 82 84
e 82 86
e 82 88
e 82 89
e 82 91
e 82 94
e 82 97
e 82 103
e 82 106
e 83 84
e 83 86
e 83 88
e 83 89
e 83 91
e 83 97
e 83 103
e 83 105
e 83 106
e 84 86
e 84 88
e 84 89
e 84 91
e 84 97
e 84 103
e 84 105
e 84 106
e 85 90
e 85 94
e 85 95
e 85 100
e 85 101
e 85 105
e 86 87
e 86 88
e 86 89
e 86 91
e 86 96
e 86 97
e 86 103
e 86 106
e 87 96
e 87 98
e 87 105
e 88 89
e 88 91
e 88 105
e 88 106
e 89 91
e 89 105
e 89 106
e 90 94
e 90 95
e 90 100
e 90 101
e 90 105
e 91 97
e 91 103
e 91 105
e 91 106
e 92 94
e 92 95
e 92 100
e 92 102
e 92 105
e 93 94
e 93 95
e 93 100
e 93 101
e 93 105
e 94 95
e 94 99
e 94 100
e 94 101
e 94 102
e 94 104
e 94 105
e 94 106
e 95 99
e 95 100
e 95 101
e 95 102
e 95 105
e 96 98
e 96 105
e 97 103
e 97 105
e 97 106
e 98 105
e 99 100
e 99 105
e 100 101
e 100 102
e 100 104
e 100 105
e 101 105
e 102 105
e 103 105
e 103 106
e 104 105
